; SWAP1 PUSH cw_1 SWAP1 TIMESTAMP SWAP1 DUP2 => TIMESTAMP PUSH cw_1 SWAP2 SWAP3 TIMESTAMP
(set-option :produce-proofs true)
; 
(set-info :status unknown)
(declare-fun storage_t ((_ BitVec 256) (_ BitVec 256) (_ BitVec 256) (_ BitVec 256) Int (_ BitVec 256)) (_ BitVec 256))
(declare-fun w_1 () (_ BitVec 256))
(declare-fun storage_s ((_ BitVec 256) (_ BitVec 256) (_ BitVec 256) (_ BitVec 256) Int (_ BitVec 256)) (_ BitVec 256))
(declare-fun exc_halt_t (Int) Bool)
(declare-fun exc_halt_s (Int) Bool)
(declare-fun sc_t (Int) (_ BitVec 6))
(declare-fun stack_t ((_ BitVec 256) (_ BitVec 256) (_ BitVec 256) (_ BitVec 256) Int (_ BitVec 6)) (_ BitVec 256))
(declare-fun stack_s ((_ BitVec 256) (_ BitVec 256) (_ BitVec 256) (_ BitVec 256) Int (_ BitVec 6)) (_ BitVec 256))
(declare-fun sc_s (Int) (_ BitVec 6))
(declare-fun used_gas_t ((_ BitVec 256) (_ BitVec 256) (_ BitVec 256) (_ BitVec 256) Int) Int)
(declare-fun used_gas_s ((_ BitVec 256) (_ BitVec 256) (_ BitVec 256) (_ BitVec 256) Int) Int)
(assert
 (exists ((x_0 (_ BitVec 256)) (x_1 (_ BitVec 256)) (x_TIMESTAMP (_ BitVec 256)) )(let (($x4021 (forall ((w (_ BitVec 256)) )(let ((?x3901 (storage_t x_0 x_1 w_1 x_TIMESTAMP 5 w)))
 (let ((?x5468 (storage_s x_0 x_1 w_1 x_TIMESTAMP 6 w)))
 (= ?x5468 ?x3901))))
 ))
 (let (($x10311 (exc_halt_t 5)))
 (let (($x7121 (exc_halt_s 6)))
 (let (($x11657 (= $x7121 $x10311)))
 (let (($x5742 (forall ((n (_ BitVec 6)) )(let ((?x927 (stack_t x_0 x_1 w_1 x_TIMESTAMP 5 n)))
 (let ((?x2231 (stack_s x_0 x_1 w_1 x_TIMESTAMP 6 n)))
 (let (($x990 (= ?x2231 ?x927)))
 (or $x990 (bvsle (sc_t 5) n))))))
 ))
 (let ((?x10036 (sc_t 5)))
 (let ((?x9114 (sc_s 6)))
 (let (($x4740 (= ?x9114 ?x10036)))
 (let ((?x2726 (used_gas_t x_0 x_1 w_1 x_TIMESTAMP 0)))
 (let ((?x5299 (used_gas_s x_0 x_1 w_1 x_TIMESTAMP 0)))
 (let (($x1188 (= ?x5299 ?x2726)))
 (let (($x4798 (forall ((w (_ BitVec 256)) )(let ((?x7289 (storage_t x_0 x_1 w_1 x_TIMESTAMP 0 w)))
 (let ((?x7071 (storage_s x_0 x_1 w_1 x_TIMESTAMP 0 w)))
 (= ?x7071 ?x7289))))
 ))
 (let (($x56 (exc_halt_t 0)))
 (let (($x57 (exc_halt_s 0)))
 (let (($x58 (= $x57 $x56)))
 (let (($x6458 (forall ((n (_ BitVec 6)) )(let ((?x63 (sc_t 0)))
 (let (($x6494 (bvsle ?x63 n)))
 (let ((?x5410 (stack_t x_0 x_1 w_1 x_TIMESTAMP 0 n)))
 (let ((?x6273 (stack_s x_0 x_1 w_1 x_TIMESTAMP 0 n)))
 (let (($x2127 (= ?x6273 ?x5410)))
 (or $x2127 $x6494)))))))
 ))
 (let ((?x63 (sc_t 0)))
 (let ((?x72 (sc_s 0)))
 (let (($x73 (= ?x72 ?x63)))
 (let (($x7854 (exc_halt_t 4)))
 (let (($x6139 (or $x7854 (not (= ((_ extract 6 6) (bvadd (_ bv1 7) (concat (_ bv0 1) (sc_t 4)))) (_ bv0 1))))))
 (let (($x6147 (forall ((w (_ BitVec 256)) )(let ((?x7395 (storage_t x_0 x_1 w_1 x_TIMESTAMP 4 w)))
 (let ((?x3901 (storage_t x_0 x_1 w_1 x_TIMESTAMP 5 w)))
 (= ?x3901 ?x7395))))
 ))
 (let (($x7718 (forall ((n (_ BitVec 6)) )(let ((?x7495 (sc_t 4)))
 (let (($x11004 (bvsle ?x7495 n)))
 (let ((?x1719 (stack_t x_0 x_1 w_1 x_TIMESTAMP 4 n)))
 (let ((?x927 (stack_t x_0 x_1 w_1 x_TIMESTAMP 5 n)))
 (or (= ?x927 ?x1719) $x11004))))))
 ))
 (let (($x5596 (= (used_gas_t x_0 x_1 w_1 x_TIMESTAMP 5) (+ 2 (used_gas_t x_0 x_1 w_1 x_TIMESTAMP 4)))))
 (let (($x8513 (= $x7854 (or (exc_halt_t 3) (not (bvsle (_ bv0 6) (bvadd (_ bv60 6) (sc_t 3))))))))
 (let (($x6957 (forall ((w (_ BitVec 256)) )(let ((?x8532 (storage_t x_0 x_1 w_1 x_TIMESTAMP 3 w)))
 (let ((?x7395 (storage_t x_0 x_1 w_1 x_TIMESTAMP 4 w)))
 (= ?x7395 ?x8532))))
 ))
 (let (($x11961 (forall ((n (_ BitVec 6)) )(let ((?x7514 (stack_t x_0 x_1 w_1 x_TIMESTAMP 3 n)))
 (let ((?x1719 (stack_t x_0 x_1 w_1 x_TIMESTAMP 4 n)))
 (let ((?x10013 (sc_t 3)))
 (let ((?x8717 (bvadd (_ bv60 6) ?x10013)))
 (let (($x47 (bvsle ?x8717 n)))
 (or $x47 (= ?x1719 ?x7514))))))))
 ))
 (let ((?x10013 (sc_t 3)))
 (let ((?x7495 (sc_t 4)))
 (let (($x9424 (= ?x7495 ?x10013)))
 (let ((?x9777 (used_gas_t x_0 x_1 w_1 x_TIMESTAMP 4)))
 (let ((?x594 (bvadd (_ bv62 6) ?x10013)))
 (let ((?x7321 (stack_t x_0 x_1 w_1 x_TIMESTAMP 3 ?x594)))
 (let ((?x3522 (bvadd (_ bv61 6) ?x10013)))
 (let ((?x8848 (stack_t x_0 x_1 w_1 x_TIMESTAMP 3 ?x3522)))
 (let ((?x4792 (bvadd (_ bv63 6) ?x10013)))
 (let ((?x4618 (stack_t x_0 x_1 w_1 x_TIMESTAMP 3 ?x4792)))
 (let (($x2562 (= (stack_t x_0 x_1 w_1 x_TIMESTAMP 4 (bvadd (_ bv63 6) ?x7495)) (stack_t x_0 x_1 w_1 x_TIMESTAMP 3 (bvadd (_ bv60 6) ?x10013)))))
 (let (($x9131 (exc_halt_t 3)))
 (let (($x4213 (= $x9131 (or (exc_halt_t 2) (not (bvsle (_ bv0 6) (bvadd (_ bv61 6) (sc_t 2))))))))
 (let (($x5478 (forall ((w (_ BitVec 256)) )(let ((?x9646 (storage_t x_0 x_1 w_1 x_TIMESTAMP 2 w)))
 (let ((?x8532 (storage_t x_0 x_1 w_1 x_TIMESTAMP 3 w)))
 (= ?x8532 ?x9646))))
 ))
 (let (($x2027 (forall ((n (_ BitVec 6)) )(let ((?x8438 (sc_t 2)))
 (let ((?x2261 (bvadd (_ bv61 6) ?x8438)))
 (let (($x4956 (bvsle ?x2261 n)))
 (let ((?x11402 (stack_t x_0 x_1 w_1 x_TIMESTAMP 2 n)))
 (let ((?x7514 (stack_t x_0 x_1 w_1 x_TIMESTAMP 3 n)))
 (or (= ?x7514 ?x11402) $x4956)))))))
 ))
 (let ((?x8438 (sc_t 2)))
 (let (($x1223 (= ?x10013 ?x8438)))
 (let ((?x151 (used_gas_t x_0 x_1 w_1 x_TIMESTAMP 3)))
 (let (($x4304 (not (= ((_ extract 6 6) (bvadd (_ bv1 7) (concat (_ bv0 1) (sc_t 1)))) (_ bv0 1)))))
 (let (($x3751 (exc_halt_t 1)))
 (let (($x7801 (exc_halt_t 2)))
 (let (($x792 (= $x7801 (or $x3751 $x4304))))
 (let (($x11103 (forall ((w (_ BitVec 256)) )(let ((?x423 (storage_t x_0 x_1 w_1 x_TIMESTAMP 1 w)))
 (let ((?x9646 (storage_t x_0 x_1 w_1 x_TIMESTAMP 2 w)))
 (= ?x9646 ?x423))))
 ))
 (let (($x5774 (forall ((n (_ BitVec 6)) )(let ((?x2459 (sc_t 1)))
 (let (($x5085 (bvsle ?x2459 n)))
 (let ((?x3852 (stack_t x_0 x_1 w_1 x_TIMESTAMP 1 n)))
 (let ((?x11402 (stack_t x_0 x_1 w_1 x_TIMESTAMP 2 n)))
 (or (= ?x11402 ?x3852) $x5085))))))
 ))
 (let (($x292 (= ?x8438 (bvadd (_ bv1 6) (sc_t 1)))))
 (let ((?x5334 (used_gas_t x_0 x_1 w_1 x_TIMESTAMP 2)))
 (let (($x5133 (= $x3751 (or $x56 (not (= ((_ extract 6 6) (bvadd (_ bv1 7) (concat (_ bv0 1) ?x63))) (_ bv0 1)))))))
 (let (($x314 (forall ((w (_ BitVec 256)) )(let ((?x7289 (storage_t x_0 x_1 w_1 x_TIMESTAMP 0 w)))
 (let ((?x423 (storage_t x_0 x_1 w_1 x_TIMESTAMP 1 w)))
 (= ?x423 ?x7289))))
 ))
 (let (($x2564 (forall ((n (_ BitVec 6)) )(let ((?x63 (sc_t 0)))
 (let (($x6494 (bvsle ?x63 n)))
 (let ((?x5410 (stack_t x_0 x_1 w_1 x_TIMESTAMP 0 n)))
 (let ((?x3852 (stack_t x_0 x_1 w_1 x_TIMESTAMP 1 n)))
 (or (= ?x3852 ?x5410) $x6494))))))
 ))
 (let ((?x2459 (sc_t 1)))
 (let (($x3412 (= ?x2459 (bvadd (_ bv1 6) ?x63))))
 (let (($x1862 (exc_halt_s 5)))
 (let (($x8055 (or $x1862 (not (= ((_ extract 6 6) (bvadd (_ bv1 7) (concat (_ bv0 1) (sc_s 5)))) (_ bv0 1))) (not (bvsle (_ bv0 6) (bvadd (_ bv62 6) (sc_s 5)))))))
 (let (($x9256 (forall ((w (_ BitVec 256)) )(let ((?x7003 (storage_s x_0 x_1 w_1 x_TIMESTAMP 5 w)))
 (let ((?x5468 (storage_s x_0 x_1 w_1 x_TIMESTAMP 6 w)))
 (= ?x5468 ?x7003))))
 ))
 (let (($x2991 (forall ((n (_ BitVec 6)) )(let ((?x1555 (stack_s x_0 x_1 w_1 x_TIMESTAMP 5 n)))
 (let ((?x2231 (stack_s x_0 x_1 w_1 x_TIMESTAMP 6 n)))
 (or (bvsle (bvadd (_ bv62 6) (sc_s 5)) n) (= ?x2231 ?x1555)))))
 ))
 (let (($x3427 (= (used_gas_s x_0 x_1 w_1 x_TIMESTAMP 6) (+ 3 (used_gas_s x_0 x_1 w_1 x_TIMESTAMP 5)))))
 (let ((?x4319 (sc_s 5)))
 (let ((?x2393 (bvadd (_ bv63 6) ?x4319)))
 (let ((?x5460 (stack_s x_0 x_1 w_1 x_TIMESTAMP 5 ?x2393)))
 (let ((?x3898 (bvadd (_ bv62 6) ?x4319)))
 (let ((?x153 (stack_s x_0 x_1 w_1 x_TIMESTAMP 5 ?x3898)))
 (let (($x6498 (= $x1862 (or (exc_halt_s 4) (not (bvsle (_ bv0 6) (bvadd (_ bv62 6) (sc_s 4))))))))
 (let (($x958 (forall ((w (_ BitVec 256)) )(let ((?x5232 (storage_s x_0 x_1 w_1 x_TIMESTAMP 4 w)))
 (let ((?x7003 (storage_s x_0 x_1 w_1 x_TIMESTAMP 5 w)))
 (= ?x7003 ?x5232))))
 ))
 (let (($x9231 (forall ((n (_ BitVec 6)) )(let ((?x9433 (sc_s 4)))
 (let ((?x2201 (bvadd (_ bv62 6) ?x9433)))
 (let (($x4811 (bvsle ?x2201 n)))
 (let ((?x8592 (stack_s x_0 x_1 w_1 x_TIMESTAMP 4 n)))
 (let ((?x1555 (stack_s x_0 x_1 w_1 x_TIMESTAMP 5 n)))
 (or (= ?x1555 ?x8592) $x4811)))))))
 ))
 (let ((?x9433 (sc_s 4)))
 (let (($x3640 (= ?x4319 ?x9433)))
 (let ((?x5140 (used_gas_s x_0 x_1 w_1 x_TIMESTAMP 5)))
 (let (($x2276 (not (= ((_ extract 6 6) (bvadd (_ bv1 7) (concat (_ bv0 1) (sc_s 3)))) (_ bv0 1)))))
 (let (($x8103 (exc_halt_s 3)))
 (let (($x9175 (exc_halt_s 4)))
 (let (($x9460 (= $x9175 (or $x8103 $x2276))))
 (let (($x9086 (forall ((w (_ BitVec 256)) )(let ((?x918 (storage_s x_0 x_1 w_1 x_TIMESTAMP 3 w)))
 (let ((?x5232 (storage_s x_0 x_1 w_1 x_TIMESTAMP 4 w)))
 (= ?x5232 ?x918))))
 ))
 (let (($x6605 (forall ((n (_ BitVec 6)) )(let ((?x3851 (sc_s 3)))
 (let (($x4914 (bvsle ?x3851 n)))
 (let ((?x9907 (stack_s x_0 x_1 w_1 x_TIMESTAMP 3 n)))
 (let ((?x8592 (stack_s x_0 x_1 w_1 x_TIMESTAMP 4 n)))
 (or (= ?x8592 ?x9907) $x4914))))))
 ))
 (let (($x9635 (= ?x9433 (bvadd (_ bv1 6) (sc_s 3)))))
 (let ((?x4833 (used_gas_s x_0 x_1 w_1 x_TIMESTAMP 4)))
 (let (($x3894 (= $x8103 (or (exc_halt_s 2) (not (bvsle (_ bv0 6) (bvadd (_ bv62 6) (sc_s 2))))))))
 (let (($x9247 (forall ((w (_ BitVec 256)) )(let ((?x4014 (storage_s x_0 x_1 w_1 x_TIMESTAMP 2 w)))
 (let ((?x918 (storage_s x_0 x_1 w_1 x_TIMESTAMP 3 w)))
 (= ?x918 ?x4014))))
 ))
 (let (($x4011 (forall ((n (_ BitVec 6)) )(let ((?x2272 (sc_s 2)))
 (let ((?x681 (bvadd (_ bv62 6) ?x2272)))
 (let (($x11843 (bvsle ?x681 n)))
 (let ((?x3038 (stack_s x_0 x_1 w_1 x_TIMESTAMP 2 n)))
 (let ((?x9907 (stack_s x_0 x_1 w_1 x_TIMESTAMP 3 n)))
 (or (= ?x9907 ?x3038) $x11843)))))))
 ))
 (let ((?x2272 (sc_s 2)))
 (let ((?x3851 (sc_s 3)))
 (let (($x3613 (= ?x3851 ?x2272)))
 (let ((?x5597 (used_gas_s x_0 x_1 w_1 x_TIMESTAMP 3)))
 (let (($x5125 (= (stack_s x_0 x_1 w_1 x_TIMESTAMP 3 (bvadd (_ bv62 6) ?x3851)) (stack_s x_0 x_1 w_1 x_TIMESTAMP 2 (bvadd (_ bv63 6) ?x2272)))))
 (let (($x2210 (= (stack_s x_0 x_1 w_1 x_TIMESTAMP 3 (bvadd (_ bv63 6) ?x3851)) (stack_s x_0 x_1 w_1 x_TIMESTAMP 2 (bvadd (_ bv62 6) ?x2272)))))
 (let (($x8831 (not (= ((_ extract 6 6) (bvadd (_ bv1 7) (concat (_ bv0 1) (sc_s 1)))) (_ bv0 1)))))
 (let (($x8780 (exc_halt_s 1)))
 (let (($x10052 (exc_halt_s 2)))
 (let (($x2304 (= $x10052 (or $x8780 $x8831))))
 (let (($x11002 (forall ((w (_ BitVec 256)) )(let ((?x10195 (storage_s x_0 x_1 w_1 x_TIMESTAMP 1 w)))
 (let ((?x4014 (storage_s x_0 x_1 w_1 x_TIMESTAMP 2 w)))
 (= ?x4014 ?x10195))))
 ))
 (let (($x1966 (forall ((n (_ BitVec 6)) )(let ((?x154 (sc_s 1)))
 (let (($x8342 (bvsle ?x154 n)))
 (let ((?x2079 (stack_s x_0 x_1 w_1 x_TIMESTAMP 1 n)))
 (let ((?x3038 (stack_s x_0 x_1 w_1 x_TIMESTAMP 2 n)))
 (or (= ?x3038 ?x2079) $x8342))))))
 ))
 (let (($x8006 (= ?x2272 (bvadd (_ bv1 6) (sc_s 1)))))
 (let ((?x663 (used_gas_s x_0 x_1 w_1 x_TIMESTAMP 2)))
 (let (($x1039 (= $x8780 (or $x57 (not (bvsle (_ bv0 6) (bvadd (_ bv62 6) ?x72)))))))
 (let (($x4300 (forall ((w (_ BitVec 256)) )(let ((?x7071 (storage_s x_0 x_1 w_1 x_TIMESTAMP 0 w)))
 (let ((?x10195 (storage_s x_0 x_1 w_1 x_TIMESTAMP 1 w)))
 (= ?x10195 ?x7071))))
 ))
 (let (($x10787 (forall ((n (_ BitVec 6)) )(let ((?x72 (sc_s 0)))
 (let ((?x8712 (bvadd (_ bv62 6) ?x72)))
 (let (($x10911 (bvsle ?x8712 n)))
 (let ((?x6273 (stack_s x_0 x_1 w_1 x_TIMESTAMP 0 n)))
 (let ((?x2079 (stack_s x_0 x_1 w_1 x_TIMESTAMP 1 n)))
 (or (= ?x2079 ?x6273) $x10911)))))))
 ))
 (let ((?x154 (sc_s 1)))
 (let (($x3542 (= ?x154 ?x72)))
 (let (($x2238 (= (stack_s x_0 x_1 w_1 x_TIMESTAMP 1 (bvadd (_ bv62 6) ?x154)) (stack_s x_0 x_1 w_1 x_TIMESTAMP 0 (bvadd (_ bv63 6) ?x72)))))
 (let (($x2817 (= (stack_s x_0 x_1 w_1 x_TIMESTAMP 1 (bvadd (_ bv63 6) ?x154)) (stack_s x_0 x_1 w_1 x_TIMESTAMP 0 (bvadd (_ bv62 6) ?x72)))))
 (let (($x11708 (forall ((w (_ BitVec 256)) )(let ((?x7071 (storage_s x_0 x_1 w_1 x_TIMESTAMP 0 w)))
 (= ?x7071 (_ bv0 256))))
 ))
 (let (($x8294 (= ?x5299 0)))
 (let (($x8061 (not $x57)))
 (let (($x7625 (= (stack_s x_0 x_1 w_1 x_TIMESTAMP 0 (_ bv1 6)) x_1)))
 (let (($x8672 (= (stack_s x_0 x_1 w_1 x_TIMESTAMP 0 (_ bv0 6)) x_0)))
 (let (($x6737 (= ?x72 (_ bv2 6))))
 (and $x6737 $x8672 $x7625 $x8061 $x8294 $x11708 $x2817 $x2238 (= (used_gas_s x_0 x_1 w_1 x_TIMESTAMP 1) (+ 3 ?x5299)) $x3542 $x10787 $x4300 $x1039 (= (stack_s x_0 x_1 w_1 x_TIMESTAMP 2 ?x154) w_1) (= ?x663 (+ 3 (used_gas_s x_0 x_1 w_1 x_TIMESTAMP 1))) $x8006 $x1966 $x11002 $x2304 $x2210 $x5125 (= ?x5597 (+ 3 ?x663)) $x3613 $x4011 $x9247 $x3894 (= (stack_s x_0 x_1 w_1 x_TIMESTAMP 4 ?x3851) x_TIMESTAMP) (= ?x4833 (+ 2 ?x5597)) $x9635 $x6605 $x9086 $x9460 (= ?x5460 (stack_s x_0 x_1 w_1 x_TIMESTAMP 4 (bvadd (_ bv62 6) ?x9433))) (= ?x153 (stack_s x_0 x_1 w_1 x_TIMESTAMP 4 (bvadd (_ bv63 6) ?x9433))) (= ?x5140 (+ 3 ?x4833)) $x3640 $x9231 $x958 $x6498 (= (stack_s x_0 x_1 w_1 x_TIMESTAMP 6 (bvadd (_ bv63 6) ?x9114)) ?x153) (= (stack_s x_0 x_1 w_1 x_TIMESTAMP 6 ?x3898) ?x153) (= (stack_s x_0 x_1 w_1 x_TIMESTAMP 6 ?x2393) ?x5460) $x3427 (= ?x9114 (bvadd (_ bv1 6) ?x4319)) $x2991 $x9256 (= $x7121 $x8055) (= (stack_t x_0 x_1 w_1 x_TIMESTAMP 1 ?x63) x_TIMESTAMP) (= (used_gas_t x_0 x_1 w_1 x_TIMESTAMP 1) (+ 2 ?x2726)) $x3412 $x2564 $x314 $x5133 (= (stack_t x_0 x_1 w_1 x_TIMESTAMP 2 ?x2459) w_1) (= ?x5334 (+ 3 (used_gas_t x_0 x_1 w_1 x_TIMESTAMP 1))) $x292 $x5774 $x11103 $x792 (= ?x4618 (stack_t x_0 x_1 w_1 x_TIMESTAMP 2 (bvadd (_ bv61 6) ?x8438))) (= ?x8848 (stack_t x_0 x_1 w_1 x_TIMESTAMP 2 (bvadd (_ bv63 6) ?x8438))) (= ?x7321 (stack_t x_0 x_1 w_1 x_TIMESTAMP 2 (bvadd (_ bv62 6) ?x8438))) (= ?x151 (+ 3 ?x5334)) $x1223 $x2027 $x5478 $x4213 $x2562 (= (stack_t x_0 x_1 w_1 x_TIMESTAMP 4 (bvadd (_ bv60 6) ?x7495)) ?x4618) (= (stack_t x_0 x_1 w_1 x_TIMESTAMP 4 (bvadd (_ bv61 6) ?x7495)) ?x8848) (= (stack_t x_0 x_1 w_1 x_TIMESTAMP 4 (bvadd (_ bv62 6) ?x7495)) ?x7321) (= ?x9777 (+ 3 ?x151)) $x9424 $x11961 $x6957 $x8513 (= (stack_t x_0 x_1 w_1 x_TIMESTAMP 5 ?x7495) x_TIMESTAMP) $x5596 (= ?x10036 (bvadd (_ bv1 6) ?x7495)) $x7718 $x6147 (= $x10311 $x6139) $x73 $x6458 $x58 $x4798 $x1188 (not (and $x4740 $x5742 $x11657 $x4021))))))))))))))))))))))))))))))))))))))))))))))))))))))))))))))))))))))))))))))))))))))))))))))))))))))))))))))))))))
 )
(check-sat)
(get-proof)
